p edges 424 1574
e 1 2
e 1 3
e 1 4
e 2 3
e 2 4
e 2 23
e 2 43
e 2 60
e 2 123
e 2 166
e 2 167
e 2 168
e 3 4
e 3 9
e 3 62
e 3 166
e 4 33
e 4 34
e 4 213
e 4 292
e 4 359
e 5 6
e 5 7
e 5 16
e 5 38
e 5 52
e 5 63
e 5 64
e 5 65
e 5 66
e 6 7
e 6 12
e 6 29
e 6 37
e 6 293
e 6 400
e 7 26
e 7 36
e 7 42
e 7 48
e 7 256
e 7 400
e 8 9
e 8 13
e 8 27
e 8 55
e 8 67
e 8 68
e 8 69
e 8 70
e 8 71
e 8 72
e 8 73
e 8 74
e 9 72
e 10 11
e 10 12
e 10 20
e 10 130
e 10 257
e 11 12
e 12 29
e 12 37
e 12 297
e 12 361
e 13 14
e 13 15
e 13 27
e 13 55
e 13 77
e 14 15
e 14 19
e 14 32
e 14 40
e 14 44
e 14 133
e 14 176
e 14 220
e 15 35
e 15 39
e 15 47
e 15 51
e 15 77
e 15 132
e 15 177
e 15 335
e 16 17
e 16 18
e 16 19
e 16 38
e 16 52
e 16 78
e 16 79
e 17 18
e 17 19
e 17 21
e 18 19
e 18 22
e 18 28
e 18 31
e 18 134
e 18 135
e 18 136
e 19 32
e 19 40
e 19 44
e 19 221
e 19 222
e 19 223
e 20 21
e 20 22
e 20 23
e 20 24
e 20 137
e 20 263
e 20 264
e 21 22
e 21 23
e 21 24
e 22 23
e 22 24
e 22 28
e 22 31
e 22 137
e 22 138
e 23 24
e 23 43
e 23 182
e 23 183
e 23 184
e 24 41
e 24 45
e 24 49
e 24 303
e 24 304
e 25 26
e 25 27
e 25 46
e 25 50
e 25 186
e 25 265
e 25 339
e 26 27
e 26 36
e 26 42
e 26 48
e 26 140
e 26 367
e 27 55
e 27 84
e 27 85
e 27 86
e 27 87
e 28 29
e 28 31
e 29 37
e 29 386
e 29 404
e 30 31
e 30 32
e 30 33
e 31 32
e 31 33
e 31 89
e 31 142
e 32 33
e 32 40
e 32 44
e 32 90
e 32 234
e 32 235
e 33 34
e 33 267
e 33 371
e 34 35
e 34 36
e 34 311
e 35 36
e 35 39
e 35 47
e 35 51
e 35 237
e 35 269
e 35 312
e 36 42
e 36 48
e 36 196
e 36 270
e 36 406
e 37 98
e 37 375
e 37 409
e 37 410
e 38 39
e 38 40
e 38 41
e 38 42
e 38 52
e 38 101
e 38 102
e 38 103
e 39 40
e 39 41
e 39 42
e 39 47
e 39 51
e 39 276
e 39 350
e 40 41
e 40 42
e 40 44
e 40 201
e 41 42
e 41 45
e 41 49
e 41 148
e 41 316
e 41 317
e 42 48
e 42 376
e 43 104
e 44 45
e 44 46
e 44 105
e 44 242
e 44 243
e 44 244
e 44 245
e 44 246
e 45 46
e 45 49
e 45 106
e 45 277
e 45 321
e 45 322
e 46 50
e 46 245
e 46 352
e 47 48
e 47 49
e 47 50
e 47 51
e 47 110
e 47 155
e 47 206
e 47 393
e 47 394
e 48 49
e 48 50
e 48 51
e 48 157
e 48 279
e 48 394
e 48 413
e 49 50
e 49 51
e 49 204
e 49 280
e 49 323
e 50 51
e 50 154
e 50 353
e 51 110
e 51 155
e 51 206
e 51 393
e 51 394
e 52 53
e 52 54
e 52 55
e 52 111
e 52 112
e 52 113
e 52 114
e 53 54
e 53 55
e 53 56
e 53 111
e 53 250
e 53 251
e 54 55
e 54 57
e 55 111
e 55 112
e 55 113
e 55 114
e 56 57
e 56 252
e 56 253
e 58 59
e 58 66
e 58 74
e 58 76
e 58 97
e 58 109
e 58 113
e 58 116
e 58 286
e 58 357
e 58 358
e 59 83
e 59 288
e 59 328
e 60 61
e 60 62
e 60 65
e 60 71
e 60 85
e 60 100
e 60 123
e 60 166
e 60 167
e 60 168
e 61 62
e 61 90
e 61 93
e 61 212
e 61 213
e 62 72
e 62 86
e 62 118
e 62 166
e 63 64
e 63 65
e 63 66
e 63 102
e 63 115
e 63 214
e 63 255
e 63 256
e 64 65
e 64 66
e 64 77
e 64 84
e 64 87
e 64 110
e 64 124
e 65 66
e 65 71
e 65 85
e 65 100
e 65 169
e 65 170
e 65 171
e 66 74
e 66 76
e 66 97
e 66 109
e 66 113
e 66 116
e 66 169
e 66 331
e 67 68
e 67 69
e 67 70
e 67 71
e 67 72
e 67 73
e 67 74
e 67 75
e 67 126
e 67 127
e 68 69
e 68 70
e 68 71
e 68 72
e 68 73
e 68 74
e 68 78
e 68 88
e 68 101
e 68 104
e 68 172
e 68 173
e 69 70
e 69 71
e 69 72
e 69 73
e 69 74
e 69 81
e 69 91
e 69 98
e 69 107
e 70 71
e 70 72
e 70 73
e 70 74
e 71 72
e 71 73
e 71 74
e 71 85
e 71 100
e 71 172
e 71 173
e 72 73
e 72 74
e 72 86
e 72 118
e 73 74
e 73 94
e 73 106
e 73 114
e 73 119
e 73 294
e 73 295
e 73 296
e 74 76
e 74 97
e 74 109
e 74 113
e 74 116
e 74 173
e 74 360
e 75 76
e 75 128
e 75 129
e 75 130
e 76 97
e 76 109
e 76 113
e 76 116
e 76 129
e 76 361
e 76 362
e 77 84
e 77 87
e 77 110
e 77 132
e 77 177
e 77 335
e 78 79
e 78 88
e 78 101
e 78 104
e 78 180
e 78 181
e 79 82
e 80 81
e 80 82
e 80 83
e 80 105
e 80 108
e 80 111
e 80 224
e 80 225
e 80 226
e 81 82
e 81 83
e 81 91
e 81 98
e 81 107
e 81 184
e 81 263
e 81 365
e 81 403
e 82 83
e 83 385
e 84 85
e 84 86
e 84 87
e 84 110
e 84 189
e 84 228
e 85 86
e 85 87
e 85 100
e 85 185
e 85 186
e 85 187
e 85 188
e 85 189
e 86 87
e 86 118
e 86 227
e 86 265
e 86 266
e 87 110
e 87 189
e 87 228
e 88 89
e 88 90
e 88 91
e 88 101
e 88 104
e 88 190
e 88 191
e 88 192
e 88 193
e 89 90
e 89 91
e 89 92
e 89 142
e 90 91
e 90 93
e 90 234
e 90 235
e 91 98
e 91 107
e 91 192
e 91 371
e 91 405
e 92 93
e 92 94
e 92 143
e 92 144
e 93 94
e 93 144
e 93 236
e 93 237
e 94 106
e 94 114
e 94 119
e 94 194
e 94 311
e 94 312
e 95 96
e 95 97
e 95 103
e 95 112
e 95 120
e 95 345
e 95 346
e 96 97
e 96 99
e 97 109
e 97 113
e 97 116
e 97 372
e 97 373
e 97 374
e 98 99
e 98 100
e 98 107
e 98 375
e 98 409
e 98 410
e 99 100
e 100 145
e 101 102
e 101 103
e 101 104
e 101 201
e 102 103
e 102 115
e 102 275
e 102 276
e 103 112
e 103 120
e 103 275
e 103 350
e 103 351
e 105 106
e 105 107
e 105 108
e 105 111
e 105 242
e 105 243
e 105 244
e 105 245
e 105 246
e 106 107
e 106 114
e 106 119
e 106 277
e 106 321
e 106 322
e 107 246
e 107 412
e 108 109
e 108 110
e 108 111
e 108 247
e 108 248
e 108 249
e 109 110
e 109 113
e 109 116
e 109 205
e 109 247
e 109 323
e 110 155
e 110 206
e 110 393
e 110 394
e 111 112
e 111 113
e 111 114
e 111 250
e 111 251
e 112 113
e 112 114
e 112 120
e 112 354
e 112 355
e 113 114
e 113 116
e 113 378
e 114 119
e 114 324
e 114 325
e 115 116
e 115 117
e 115 118
e 115 119
e 115 120
e 115 253
e 115 283
e 115 284
e 116 117
e 116 118
e 116 119
e 116 120
e 117 118
e 117 119
e 117 120
e 118 119
e 118 120
e 118 253
e 118 283
e 118 284
e 119 120
e 119 326
e 119 327
e 120 356
e 121 122
e 121 126
e 121 210
e 121 211
e 122 137
e 122 211
e 122 254
e 123 145
e 123 158
e 123 166
e 123 167
e 123 168
e 124 125
e 124 132
e 124 155
e 125 141
e 125 148
e 125 255
e 125 293
e 126 127
e 126 215
e 128 129
e 128 130
e 128 131
e 128 134
e 128 143
e 128 154
e 128 216
e 128 218
e 128 257
e 128 333
e 128 334
e 129 130
e 129 135
e 129 139
e 129 147
e 129 153
e 129 361
e 129 362
e 130 136
e 130 142
e 130 152
e 130 160
e 130 257
e 131 132
e 131 133
e 131 134
e 131 143
e 131 154
e 131 258
e 131 260
e 131 335
e 132 133
e 132 155
e 132 177
e 132 335
e 133 144
e 133 176
e 133 220
e 134 135
e 134 136
e 134 143
e 134 154
e 134 302
e 134 336
e 135 136
e 135 139
e 135 147
e 135 153
e 135 364
e 136 142
e 136 152
e 136 160
e 136 180
e 136 262
e 137 138
e 137 263
e 137 264
e 139 140
e 139 141
e 139 147
e 139 153
e 139 305
e 139 366
e 139 367
e 140 141
e 140 157
e 140 162
e 140 367
e 141 148
e 141 188
e 141 266
e 141 305
e 141 306
e 142 152
e 142 160
e 142 235
e 142 267
e 142 268
e 143 144
e 143 154
e 143 195
e 143 344
e 144 236
e 144 237
e 145 146
e 145 147
e 145 158
e 146 147
e 147 153
e 147 274
e 147 348
e 147 375
e 148 149
e 148 316
e 148 317
e 149 150
e 149 156
e 149 161
e 149 163
e 149 317
e 149 351
e 150 156
e 150 161
e 150 163
e 150 391
e 150 411
e 151 152
e 151 153
e 151 159
e 151 165
e 151 202
e 151 203
e 152 153
e 152 160
e 152 242
e 152 277
e 152 278
e 153 203
e 153 278
e 153 377
e 154 155
e 154 156
e 154 157
e 154 353
e 155 156
e 155 157
e 155 206
e 155 393
e 155 394
e 156 157
e 156 161
e 156 163
e 156 207
e 156 248
e 156 249
e 156 281
e 156 353
e 156 393
e 156 413
e 157 162
e 157 279
e 157 394
e 157 413
e 158 159
e 158 160
e 158 161
e 158 162
e 158 208
e 159 160
e 159 161
e 159 162
e 159 165
e 159 208
e 160 161
e 160 162
e 160 282
e 161 162
e 161 163
e 161 355
e 161 395
e 161 414
e 162 250
e 162 324
e 162 424
e 163 164
e 163 165
e 163 283
e 163 415
e 164 165
e 165 209
e 166 167
e 166 168
e 166 180
e 166 197
e 167 168
e 168 178
e 168 188
e 168 190
e 168 194
e 168 204
e 168 289
e 168 290
e 168 291
e 168 292
e 169 170
e 169 171
e 169 173
e 169 183
e 169 203
e 169 205
e 169 331
e 170 171
e 170 199
e 170 214
e 171 186
e 171 195
e 171 331
e 172 173
e 172 174
e 173 183
e 173 203
e 173 205
e 173 360
e 174 175
e 175 193
e 175 196
e 175 362
e 175 417
e 176 177
e 176 178
e 176 179
e 176 185
e 176 201
e 176 220
e 177 178
e 177 179
e 177 189
e 177 206
e 177 335
e 178 179
e 178 188
e 178 190
e 178 194
e 178 204
e 178 299
e 179 184
e 179 187
e 179 192
e 179 200
e 179 207
e 179 299
e 180 181
e 180 197
e 180 262
e 181 182
e 182 183
e 182 184
e 183 184
e 183 203
e 183 205
e 183 225
e 183 303
e 183 304
e 183 365
e 184 187
e 184 192
e 184 200
e 184 207
e 184 263
e 184 365
e 184 403
e 185 186
e 185 187
e 185 188
e 185 189
e 185 201
e 185 227
e 185 228
e 186 187
e 186 188
e 186 189
e 186 195
e 186 265
e 186 339
e 187 188
e 187 189
e 187 192
e 187 200
e 187 207
e 187 306
e 187 339
e 187 366
e 188 189
e 188 190
e 188 194
e 188 204
e 188 266
e 188 305
e 188 306
e 189 206
e 189 228
e 190 191
e 190 192
e 190 193
e 190 194
e 190 204
e 190 309
e 190 310
e 191 192
e 191 193
e 192 193
e 192 200
e 192 207
e 192 371
e 192 405
e 193 196
e 193 341
e 193 420
e 194 195
e 194 196
e 194 204
e 194 311
e 194 312
e 195 196
e 195 344
e 196 270
e 196 406
e 197 198
e 197 199
e 197 200
e 197 239
e 197 272
e 198 199
e 198 200
e 199 200
e 199 238
e 199 239
e 200 207
e 200 315
e 200 372
e 200 389
e 200 407
e 200 408
e 202 203
e 203 205
e 203 278
e 203 377
e 204 205
e 204 206
e 204 207
e 204 280
e 204 323
e 205 206
e 205 207
e 205 247
e 205 323
e 206 207
e 206 393
e 206 394
e 207 248
e 207 249
e 207 281
e 207 353
e 207 393
e 207 413
e 208 209
e 210 211
e 211 235
e 211 236
e 211 239
e 211 253
e 211 254
e 212 213
e 212 215
e 212 233
e 212 243
e 212 250
e 212 330
e 212 399
e 213 220
e 213 225
e 213 230
e 213 247
e 213 292
e 213 359
e 214 227
e 214 242
e 214 255
e 214 256
e 215 233
e 215 243
e 215 250
e 215 332
e 215 383
e 215 416
e 216 217
e 216 218
e 216 219
e 216 224
e 216 229
e 216 245
e 216 257
e 216 333
e 216 334
e 217 218
e 217 219
e 218 219
e 218 224
e 218 229
e 218 245
e 218 257
e 218 333
e 218 334
e 219 228
e 219 231
e 219 237
e 219 241
e 219 333
e 219 334
e 219 384
e 220 225
e 220 230
e 220 247
e 220 261
e 220 363
e 221 222
e 221 223
e 221 246
e 221 248
e 221 249
e 221 401
e 221 402
e 222 223
e 222 226
e 223 246
e 223 248
e 223 249
e 223 401
e 223 402
e 224 225
e 224 226
e 224 229
e 224 245
e 224 337
e 224 338
e 225 226
e 225 230
e 225 247
e 225 303
e 225 304
e 225 365
e 227 228
e 227 242
e 227 265
e 227 266
e 228 231
e 228 237
e 228 241
e 229 230
e 229 231
e 229 232
e 229 233
e 229 245
e 229 340
e 230 231
e 230 232
e 230 233
e 230 247
e 230 368
e 230 369
e 230 370
e 231 232
e 231 233
e 231 237
e 231 241
e 231 307
e 231 368
e 231 370
e 231 386
e 231 387
e 232 233
e 232 234
e 233 243
e 233 250
e 233 308
e 233 419
e 234 235
e 235 236
e 235 239
e 235 253
e 235 267
e 235 268
e 236 237
e 236 239
e 236 253
e 236 269
e 236 270
e 236 271
e 237 241
e 237 269
e 237 312
e 238 239
e 239 253
e 239 272
e 240 241
e 240 244
e 241 318
e 241 320
e 241 390
e 241 391
e 242 243
e 242 244
e 242 245
e 242 246
e 242 277
e 242 278
e 243 244
e 243 245
e 243 246
e 243 250
e 243 322
e 243 392
e 243 423
e 244 245
e 244 246
e 245 246
e 245 352
e 246 248
e 246 249
e 246 412
e 247 248
e 247 249
e 247 323
e 248 249
e 248 281
e 248 353
e 248 393
e 248 413
e 249 281
e 249 353
e 249 393
e 249 413
e 250 251
e 250 324
e 250 424
e 251 252
e 252 253
e 253 283
e 253 284
e 254 257
e 254 258
e 254 260
e 254 265
e 254 275
e 254 285
e 254 287
e 254 328
e 255 256
e 255 266
e 255 277
e 255 280
e 255 293
e 256 259
e 256 270
e 256 279
e 256 400
e 257 258
e 257 260
e 257 265
e 257 275
e 257 333
e 257 334
e 258 259
e 258 260
e 258 261
e 258 265
e 258 275
e 258 335
e 259 260
e 259 261
e 259 270
e 259 279
e 259 363
e 260 261
e 260 265
e 260 275
e 260 335
e 261 267
e 261 274
e 261 278
e 261 363
e 262 264
e 263 264
e 263 271
e 263 281
e 263 283
e 263 365
e 263 403
e 265 266
e 265 275
e 265 339
e 266 277
e 266 280
e 266 305
e 266 306
e 267 268
e 267 274
e 267 278
e 267 371
e 269 270
e 269 271
e 269 276
e 269 312
e 270 271
e 270 279
e 270 406
e 271 281
e 271 283
e 271 344
e 271 406
e 272 273
e 273 274
e 274 278
e 274 348
e 274 375
e 275 276
e 275 350
e 275 351
e 276 350
e 277 278
e 277 280
e 277 321
e 277 322
e 278 377
e 279 280
e 279 281
e 279 394
e 279 413
e 280 281
e 280 323
e 281 283
e 281 353
e 281 393
e 281 413
e 282 284
e 283 284
e 283 415
e 285 286
e 285 287
e 285 288
e 285 294
e 285 328
e 286 287
e 286 288
e 286 303
e 286 305
e 286 357
e 286 358
e 287 288
e 287 291
e 287 302
e 287 328
e 288 308
e 288 322
e 288 328
e 289 290
e 289 291
e 289 292
e 289 297
e 289 299
e 289 381
e 289 399
e 290 291
e 290 292
e 291 292
e 291 302
e 291 329
e 291 330
e 292 304
e 292 311
e 292 316
e 292 323
e 292 359
e 293 306
e 293 315
e 293 317
e 293 400
e 294 295
e 294 296
e 294 332
e 295 296
e 295 300
e 295 309
e 295 318
e 295 382
e 295 383
e 296 298
e 297 298
e 297 299
e 297 361
e 300 301
e 300 302
e 300 309
e 300 318
e 300 364
e 301 302
e 302 336
e 303 304
e 303 305
e 303 365
e 304 311
e 304 316
e 304 323
e 304 365
e 305 306
e 305 366
e 305 367
e 306 315
e 306 317
e 306 339
e 306 366
e 307 308
e 307 312
e 307 320
e 307 368
e 307 370
e 307 386
e 307 387
e 308 322
e 308 419
e 309 310
e 309 318
e 309 343
e 311 312
e 311 316
e 311 323
e 312 320
e 313 314
e 313 315
e 313 324
e 313 326
e 313 346
e 313 373
e 313 388
e 313 408
e 313 421
e 314 315
e 315 317
e 315 372
e 315 389
e 315 407
e 315 408
e 316 317
e 316 323
e 316 376
e 317 351
e 318 319
e 318 320
e 318 390
e 318 391
e 319 320
e 319 321
e 320 390
e 320 391
e 321 322
e 322 392
e 322 423
e 324 325
e 324 326
e 324 424
e 325 327
e 326 327
e 326 397
e 328 332
e 328 341
e 329 330
e 329 333
e 329 335
e 329 337
e 329 350
e 329 381
e 330 336
e 330 346
e 330 399
e 331 348
e 332 341
e 332 383
e 332 416
e 333 334
e 333 335
e 333 337
e 333 350
e 333 384
e 334 343
e 334 349
e 334 384
e 335 337
e 335 350
e 336 346
e 336 402
e 336 418
e 337 338
e 337 350
e 337 385
e 339 351
e 339 353
e 339 366
e 340 342
e 341 342
e 341 343
e 341 420
e 342 343
e 343 349
e 344 355
e 344 406
e 345 346
e 345 347
e 346 373
e 346 388
e 346 408
e 346 421
e 347 348
e 347 349
e 348 349
e 348 375
e 350 351
e 351 353
e 353 393
e 353 413
e 354 355
e 354 356
e 355 395
e 355 414
e 357 358
e 357 364
e 357 368
e 357 379
e 357 380
e 358 359
e 361 362
e 361 372
e 362 363
e 362 367
e 362 417
e 363 367
e 364 368
e 365 366
e 365 371
e 365 375
e 365 403
e 366 367
e 366 371
e 366 375
e 368 369
e 368 370
e 368 386
e 368 387
e 369 370
e 370 378
e 370 386
e 370 387
e 371 375
e 371 405
e 372 373
e 372 374
e 372 389
e 372 407
e 372 408
e 373 374
e 373 376
e 373 388
e 373 408
e 373 421
e 375 409
e 375 410
e 378 395
e 378 396
e 379 380
e 379 386
e 379 393
e 379 395
e 381 389
e 381 391
e 381 399
e 382 383
e 382 384
e 383 385
e 383 416
e 386 387
e 386 393
e 386 395
e 386 404
e 388 389
e 388 390
e 388 392
e 388 394
e 388 397
e 388 408
e 388 421
e 389 391
e 389 407
e 389 408
e 390 391
e 390 392
e 390 394
e 390 397
e 390 411
e 391 411
e 392 394
e 392 397
e 392 423
e 393 394
e 393 395
e 393 413
e 394 397
e 394 413
e 395 396
e 395 414
e 396 398
e 397 398
e 399 400
e 399 402
e 399 406
e 399 408
e 399 413
e 400 402
e 400 406
e 400 408
e 400 413
e 401 402
e 401 403
e 402 406
e 402 408
e 402 413
e 402 418
e 404 405
e 406 408
e 406 413
e 407 408
e 407 410
e 408 413
e 408 421
e 409 410
e 409 411
e 409 422
e 414 415
e 416 417
e 419 420
e 421 422
w 1 504
w 2 19
w 3 68
w 4 407
w 5 628
w 6 109
w 7 262
w 8 68
w 9 931
w 10 795
w 11 168
w 12 36
w 13 709
w 14 102
w 15 187
w 16 13
w 17 394
w 18 504
w 19 87
w 20 204
w 21 605
w 22 22
w 23 8
w 24 158
w 25 556
w 26 225
w 27 218
w 28 226
w 29 773
w 30 407
w 31 246
w 32 244
w 33 101
w 34 491
w 35 195
w 36 313
w 37 80
w 38 332
w 39 204
w 40 190
w 41 236
w 42 35
w 43 972
w 44 374
w 45 543
w 46 81
w 47 352
w 48 163
w 49 62
w 50 362
w 51 59
w 52 24
w 53 446
w 54 525
w 55 3
w 56 553
w 57 446
w 58 123
w 59 876
w 60 62
w 61 275
w 62 662
w 63 13
w 64 200
w 65 43
w 66 114
w 67 60
w 68 14
w 69 284
w 70 120
w 71 130
w 72 68
w 73 194
w 74 57
w 75 939
w 76 60
w 77 290
w 78 649
w 79 336
w 80 188
w 81 24
w 82 663
w 83 123
w 84 209
w 85 140
w 86 195
w 87 235
w 88 118
w 89 506
w 90 288
w 91 87
w 92 493
w 93 436
w 94 70
w 95 449
w 96 506
w 97 43
w 98 3
w 99 372
w 100 623
w 101 190
w 102 370
w 103 106
w 104 27
w 105 373
w 106 26
w 107 599
w 108 427
w 109 509
w 110 63
w 111 11
w 112 224
w 113 66
w 114 670
w 115 616
w 116 24
w 117 27
w 118 74
w 119 37
w 120 219
w 121 250
w 122 749
w 123 136
w 124 799
w 125 200
w 126 749
w 127 190
w 128 5
w 129 37
w 130 18
w 131 359
w 132 140
w 133 500
w 134 184
w 135 219
w 136 91
w 137 250
w 138 726
w 139 411
w 140 427
w 141 161
w 142 247
w 143 6
w 144 499
w 145 376
w 146 446
w 147 177
w 148 638
w 149 361
w 150 38
w 151 206
w 152 639
w 153 154
w 154 443
w 155 60
w 156 7
w 157 487
w 158 487
w 159 344
w 160 4
w 161 79
w 162 85
w 163 512
w 164 38
w 165 448
w 166 269
w 167 396
w 168 116
w 169 91
w 170 659
w 171 206
w 172 600
w 173 254
w 174 399
w 175 600
w 176 93
w 177 291
w 178 307
w 179 307
w 180 342
w 181 8
w 182 632
w 183 53
w 184 304
w 185 97
w 186 130
w 187 253
w 188 80
w 189 296
w 190 25
w 191 709
w 192 2
w 193 143
w 194 81
w 195 662
w 196 255
w 197 388
w 198 253
w 199 340
w 200 18
w 201 809
w 202 280
w 203 512
w 204 388
w 205 87
w 206 412
w 207 112
w 208 168
w 209 551
w 210 616
w 211 132
w 212 375
w 213 348
w 214 340
w 215 250
w 216 190
w 217 589
w 218 35
w 219 184
w 220 304
w 221 475
w 222 322
w 223 115
w 224 656
w 225 39
w 226 115
w 227 643
w 228 258
w 229 92
w 230 60
w 231 37
w 232 781
w 233 27
w 234 218
w 235 248
w 236 58
w 237 4
w 238 356
w 239 303
w 240 484
w 241 515
w 242 15
w 243 59
w 244 68
w 245 24
w 246 83
w 247 246
w 248 17
w 249 308
w 250 286
w 251 256
w 252 190
w 253 255
w 254 118
w 255 465
w 256 181
w 257 186
w 258 153
w 259 376
w 260 397
w 261 72
w 262 565
w 263 303
w 264 240
w 265 55
w 266 105
w 267 310
w 268 193
w 269 460
w 270 121
w 271 360
w 272 308
w 273 691
w 274 308
w 275 89
w 276 539
w 277 36
w 278 308
w 279 320
w 280 392
w 281 286
w 282 995
w 283 49
w 284 4
w 285 395
w 286 176
w 287 395
w 288 32
w 289 216
w 290 429
w 291 158
w 292 77
w 293 334
w 294 604
w 295 110
w 296 90
w 297 90
w 298 909
w 299 692
w 300 219
w 301 335
w 302 445
w 303 621
w 304 220
w 305 202
w 306 449
w 307 398
w 308 601
w 309 606
w 310 367
w 311 508
w 312 339
w 313 5
w 314 868
w 315 125
w 316 35
w 317 89
w 318 63
w 319 674
w 320 261
w 321 27
w 322 365
w 323 156
w 324 56
w 325 273
w 326 938
w 327 24
w 328 90
w 329 286
w 330 554
w 331 793
w 332 395
w 333 244
w 334 337
w 335 89
w 336 370
w 337 123
w 338 219
w 339 257
w 340 907
w 341 514
w 342 92
w 343 393
w 344 330
w 345 475
w 346 74
w 347 524
w 348 206
w 349 269
w 350 255
w 351 548
w 352 893
w 353 193
w 354 106
w 355 669
w 356 780
w 357 72
w 358 627
w 359 166
w 360 688
w 361 872
w 362 29
w 363 623
w 364 780
w 365 64
w 366 38
w 367 347
w 368 146
w 369 725
w 370 66
w 371 588
w 372 127
w 373 35
w 374 792
w 375 308
w 376 964
w 377 24
w 378 933
w 379 910
w 380 17
w 381 713
w 382 766
w 383 123
w 384 233
w 385 876
w 386 36
w 387 314
w 388 774
w 389 225
w 390 98
w 391 60
w 392 61
w 393 48
w 394 3
w 395 4
w 396 61
w 397 61
w 398 938
w 399 69
w 400 556
w 401 380
w 402 28
w 403 301
w 404 189
w 405 321
w 406 309
w 407 491
w 408 10
w 409 98
w 410 508
w 411 901
w 412 316
w 413 25
w 414 246
w 415 437
w 416 230
w 417 370
w 418 600
w 419 370
w 420 342
w 421 98
w 422 901
w 423 513
w 424 572
n 1 C0225
n 2 C0725
n 3 C1205
n 4 C1925
n 5 C0006
n 6 C2406
n 7 C2646
n 8 C0247
n 9 C1207
n 10 C0088
n 11 C0228
n 12 C2408
n 13 C0249
n 14 C0969
n 15 C2169
n 16 C0010
n 17 C0230
n 18 C0490
n 19 C0970
n 20 C0091
n 21 C0231
n 22 C0491
n 23 C0731
n 24 C1451
n 25 C0132
n 26 C0212
n 27 C0252
n 28 C0493
n 29 C2413
n 30 C0234
n 31 C0494
n 32 C0974
n 33 C1934
n 34 C1935
n 35 C2175
n 36 C2655
n 37 C2417
n 38 C0018
n 39 C0178
n 40 C0978
n 41 C1458
n 42 C2658
n 43 C0739
n 44 C0980
n 45 C1460
n 46 C1700
n 47 C0181
n 48 C0221
n 49 C1461
n 50 C1701
n 51 C2181
n 52 C0022
n 53 C0082
n 54 C0242
n 55 C0262
n 56 C0083
n 57 C0243
n 58 C0384
n 59 C0444
n 60 C0745
n 61 C0985
n 62 C1225
n 63 C0326
n 64 C0406
n 65 C0746
n 66 C1946
n 67 C0267
n 68 C0287
n 69 C0427
n 70 C0467
n 71 C0747
n 72 C1227
n 73 C1467
n 74 C1947
n 75 C0268
n 76 C0388
n 77 C2189
n 78 C0290
n 79 C0470
n 80 C0311
n 81 C0431
n 82 C0471
n 83 C2671
n 84 C0412
n 85 C0752
n 86 C1232
n 87 C2192
n 88 C0294
n 89 C0514
n 90 C0994
n 91 C2434
n 92 C0515
n 93 C0995
n 94 C1475
n 95 C0376
n 96 C0476
n 97 C1956
n 98 C0437
n 99 C0477
n 100 C0757
n 101 C0298
n 102 C0338
n 103 C0378
n 104 C0299
n 105 C0320
n 106 C0360
n 107 C0440
n 108 C0321
n 109 C0401
n 110 C0421
n 111 C0322
n 112 C0382
n 113 C0402
n 114 C1482
n 115 C0343
n 116 C0403
n 117 C0483
n 118 C1243
n 119 C1483
n 120 C1723
n 121 C0544
n 122 C0564
n 123 C0525
n 124 C0646
n 125 C1486
n 126 C0547
n 127 C0707
n 128 C0608
n 129 C0628
n 130 C1248
n 131 C0609
n 132 C0649
n 133 C1009
n 134 C0610
n 135 C0630
n 136 C1250
n 137 C0571
n 138 C0711
n 139 C0632
n 140 C0692
n 141 C1492
n 142 C1254
n 143 C0615
n 144 C1015
n 145 C0537
n 146 C0717
n 147 C1977
n 148 C0598
n 149 C2458
n 150 C2459
n 151 C0780
n 152 C1260
n 153 C1980
n 154 C1741
n 155 C2221
n 156 C2461
n 157 C2701
n 158 C0542
n 159 C0782
n 160 C1262
n 161 C2462
n 162 C2702
n 163 C0683
n 164 C0723
n 165 C0783
n 166 C0805
n 167 C0945
n 168 C1505
n 169 C0866
n 170 C1026
n 171 C1746
n 172 C0947
n 173 C1987
n 174 C0948
n 175 C2708
n 176 C0789
n 177 C0889
n 178 C1509
n 179 C2469
n 180 C0810
n 181 C0950
n 182 C0951
n 183 C1991
n 184 C2471
n 185 C0792
n 186 C0852
n 187 C0912
n 188 C1512
n 189 C2232
n 190 C0834
n 191 C0954
n 192 C2474
n 193 C2714
n 194 C1515
n 195 C1755
n 196 C2715
n 197 C0816
n 198 C0956
n 199 C1036
n 200 C2476
n 201 C0798
n 202 C0960
n 203 C2000
n 204 C0841
n 205 C2001
n 206 C2241
n 207 C2481
n 208 C0962
n 209 C0963
n 210 C1184
n 211 C1284
n 212 C1165
n 213 C2005
n 214 C1046
n 215 C1167
n 216 C1088
n 217 C1188
n 218 C1768
n 219 C2248
n 220 C1109
n 221 C1150
n 222 C1190
n 223 C2490
n 224 C1091
n 225 C1111
n 226 C1191
n 227 C1052
n 228 C2252
n 229 C1093
n 230 C1113
n 231 C1133
n 232 C1193
n 233 C2733
n 234 C1194
n 235 C1294
n 236 C1295
n 237 C2255
n 238 C1196
n 239 C1296
n 240 C1199
n 241 C2259
n 242 C1060
n 243 C1180
n 244 C1200
n 245 C1780
n 246 C2500
n 247 C1121
n 248 C1161
n 249 C2501
n 250 C1182
n 251 C1202
n 252 C1203
n 253 C1303
n 254 C1324
n 255 C1546
n 256 C2746
n 257 C1788
n 258 C1329
n 259 C1409
n 260 C1789
n 261 C2029
n 262 C1430
n 263 C1391
n 264 C1431
n 265 C1332
n 266 C1552
n 267 C1354
n 268 C1434
n 269 C1375
n 270 C1415
n 271 C2515
n 272 C1436
n 273 C1437
n 274 C2037
n 275 C1798
n 276 C2278
n 277 C1320
n 278 C2040
n 279 C1421
n 280 C1561
n 281 C2521
n 282 C1442
n 283 C1403
n 284 C1443
n 285 C1564
n 286 C1584
n 287 C1804
n 288 C2764
n 289 C1625
n 290 C1665
n 291 C1805
n 292 C2045
n 293 C2526
n 294 C1567
n 295 C1607
n 296 C1667
n 297 C1628
n 298 C1668
n 299 C1629
n 300 C1610
n 301 C1670
n 302 C1810
n 303 C1591
n 304 C2051
n 305 C1592
n 306 C2532
n 307 C2293
n 308 C2773
n 309 C1614
n 310 C1674
n 311 C2055
n 312 C2295
n 313 C1656
n 314 C1676
n 315 C2536
n 316 C2058
n 317 C2538
n 318 C1619
n 319 C1679
n 320 C2299
n 321 C1680
n 322 C2780
n 323 C2061
n 324 C1662
n 325 C1682
n 326 C1663
n 327 C1683
n 328 C1884
n 329 C1845
n 330 C2785
n 331 C2066
n 332 C1887
n 333 C1848
n 334 C2308
n 335 C1849
n 336 C2790
n 337 C1851
n 338 C1911
n 339 C1872
n 340 C1913
n 341 C1894
n 342 C1914
n 343 C2314
n 344 C2555
n 345 C1916
n 346 C2796
n 347 C1917
n 348 C2077
n 349 C2317
n 350 C1858
n 351 C1878
n 352 C1920
n 353 C1881
n 354 C1922
n 355 C2562
n 356 C1923
n 357 C2084
n 358 C2144
n 359 C2145
n 360 C2147
n 361 C2108
n 362 C2808
n 363 C2809
n 364 C2090
n 365 C2571
n 366 C2572
n 367 C2812
n 368 C2093
n 369 C2153
n 370 C2333
n 371 C2574
n 372 C2116
n 373 C2136
n 374 C2156
n 375 C2577
n 376 C2138
n 377 C2160
n 378 C2342
n 379 C2344
n 380 C2384
n 381 C2585
n 382 C2387
n 383 C2827
n 384 C2388
n 385 C2831
n 386 C2353
n 387 C2393
n 388 C2376
n 389 C2596
n 390 C2379
n 391 C2599
n 392 C2380
n 393 C2361
n 394 C2381
n 395 C2362
n 396 C2402
n 397 C2383
n 398 C2403
n 399 C2845
n 400 C2846
n 401 C2630
n 402 C2850
n 403 C2631
n 404 C2633
n 405 C2634
n 406 C2855
n 407 C2636
n 408 C2856
n 409 C2617
n 410 C2637
n 411 C2619
n 412 C2640
n 413 C2861
n 414 C2642
n 415 C2643
n 416 C2867
n 417 C2868
n 418 C2870
n 419 C2873
n 420 C2874
n 421 C2876
n 422 C2877
n 423 C2880
n 424 C2882
o 1 38
o 2 41
o 3 43
o 4 46
o 5 50
o 6 71
o 7 72
o 8 85
o 9 89
o 10 100
o 11 107
o 12 117
o 13 131
o 14 134
o 15 139
o 16 142
o 17 153
o 18 155
o 19 157
o 20 169
o 21 176
o 22 178
o 23 179
o 24 182
o 25 194
o 26 198
o 27 200
o 28 224
o 29 232
o 30 245
o 31 247
o 32 249
o 33 253
o 34 276
o 35 277
o 36 279
o 37 324
o 38 326
o 39 334
o 40 341
o 41 343
o 42 348
o 43 363
o 44 387
o 45 389
o 46 390
o 47 403
o 48 405
o 49 412
o 50 413
o 51 415
o 52 418
o 53 421
o 54 429
o 55 430
o 56 444
o 57 452
o 58 470
o 59 473
o 60 497
o 61 498
o 62 499
o 63 509
o 64 513
o 65 518
o 66 523
o 67 527
o 68 528
o 69 535
o 70 537
o 71 539
o 72 541
o 73 542
o 74 544
o 75 548
o 76 554
o 77 587
o 78 591
o 79 600
o 80 613
o 81 619
o 82 621
o 83 631
o 84 639
o 85 644
o 86 646
o 87 650
o 88 675
o 89 685
o 90 687
o 91 693
o 92 706
o 93 708
o 94 710
o 95 721
o 96 726
o 97 733
o 98 745
o 99 747
o 100 749
o 101 759
o 102 761
o 103 763
o 104 780
o 105 802
o 106 804
o 107 808
o 108 823
o 109 827
o 110 828
o 111 844
o 112 847
o 113 848
o 114 857
o 115 866
o 116 869
o 117 873
o 118 877
o 119 878
o 120 879
o 121 885
o 122 886
o 123 903
o 124 928
o 125 935
o 126 942
o 127 950
o 128 964
o 129 965
o 130 972
o 131 983
o 132 985
o 133 990
o 134 1002
o 135 1003
o 136 1010
o 137 1019
o 138 1026
o 139 1041
o 140 1044
o 141 1049
o 142 1086
o 143 1097
o 144 1104
o 145 1131
o 146 1140
o 147 1146
o 148 1153
o 149 1167
o 150 1186
o 151 1198
o 152 1200
o 153 1203
o 154 1221
o 155 1223
o 156 1224
o 157 1225
o 158 1226
o 159 1236
o 160 1238
o 161 1243
o 162 1244
o 163 1252
o 164 1254
o 165 1255
o 166 1282
o 167 1289
o 168 1292
o 169 1302
o 170 1307
o 171 1310
o 172 1323
o 173 1328
o 174 1340
o 175 1348
o 176 1349
o 177 1354
o 178 1360
o 179 1364
o 180 1367
o 181 1374
o 182 1391
o 183 1396
o 184 1398
o 185 1400
o 186 1403
o 187 1406
o 188 1411
o 189 1414
o 190 1436
o 191 1442
o 192 1449
o 193 1450
o 194 1462
o 195 1463
o 196 1467
o 197 1469
o 198 1476
o 199 1477
o 200 1483
o 201 1502
o 202 1544
o 203 1549
o 204 1555
o 205 1566
o 206 1567
o 207 1568
o 208 1578
o 209 1595
o 210 1611
o 211 1612
o 212 1625
o 213 1630
o 214 1634
o 215 1655
o 216 1666
o 217 1671
o 218 1674
o 219 1676
o 220 1682
o 221 1699
o 222 1701
o 223 1707
o 224 1711
o 225 1712
o 226 1716
o 227 1724
o 228 1736
o 229 1741
o 230 1742
o 231 1743
o 232 1746
o 233 1753
o 234 1761
o 235 1762
o 236 1777
o 237 1781
o 238 1791
o 239 1792
o 240 1836
o 241 1841
o 242 1844
o 243 1850
o 244 1851
o 245 1854
o 246 1857
o 247 1862
o 248 1864
o 249 1872
o 250 1880
o 251 1881
o 252 1896
o 253 1897
o 254 1905
o 255 1937
o 256 1942
o 257 1964
o 258 1970
o 259 1974
o 260 1977
o 261 1978
o 262 1988
o 263 1999
o 264 2001
o 265 2009
o 266 2015
o 267 2036
o 268 2040
o 269 2050
o 270 2052
o 271 2058
o 272 2066
o 273 2079
o 274 2082
o 275 2094
o 276 2096
o 277 2112
o 278 2121
o 279 2130
o 280 2132
o 281 2136
o 282 2144
o 283 2155
o 284 2157
o 285 2164
o 286 2165
o 287 2170
o 288 2174
o 289 2178
o 290 2180
o 291 2181
o 292 2182
o 293 2195
o 294 2197
o 295 2199
o 296 2202
o 297 2211
o 298 2213
o 299 2222
o 300 2232
o 301 2235
o 302 2236
o 303 2242
o 304 2248
o 305 2253
o 306 2261
o 307 2271
o 308 2273
o 309 2276
o 310 2279
o 311 2292
o 312 2293
o 313 2300
o 314 2301
o 315 2305
o 316 2325
o 317 2327
o 318 2331
o 319 2334
o 320 2337
o 321 2345
o 322 2350
o 323 2358
o 324 2366
o 325 2367
o 326 2377
o 327 2378
o 328 2387
o 329 2394
o 330 2401
o 331 2407
o 332 2414
o 333 2421
o 334 2426
o 335 2430
o 336 2446
o 337 2448
o 338 2451
o 339 2458
o 340 2469
o 341 2477
o 342 2478
o 343 2480
o 344 2490
o 345 2496
o 346 2500
o 347 2505
o 348 2506
o 349 2507
o 350 2511
o 351 2512
o 352 2532
o 353 2539
o 354 2550
o 355 2553
o 356 2559
o 357 2564
o 358 2567
o 359 2574
o 360 2588
o 361 2593
o 362 2598
o 363 2605
o 364 2606
o 365 2618
o 366 2625
o 367 2626
o 368 2627
o 369 2630
o 370 2631
o 371 2639
o 372 2649
o 373 2650
o 374 2651
o 375 2660
o 376 2664
o 377 2679
o 378 2694
o 379 2704
o 380 2706
o 381 2712
o 382 2721
o 383 2723
o 384 2726
o 385 2743
o 386 2749
o 387 2751
o 388 2765
o 389 2767
o 390 2780
o 391 2782
o 392 2785
o 393 2789
o 394 2790
o 395 2794
o 396 2796
o 397 2800
o 398 2801
o 399 2809
o 400 2812
o 401 2823
o 402 2824
o 403 2826
o 404 2832
o 405 2835
o 406 2839
o 407 2841
o 408 2842
o 409 2843
o 410 2844
o 411 2849
o 412 2853
o 413 2857
o 414 2859
o 415 2862
o 416 2867
o 417 2868
o 418 2870
o 419 2873
o 420 2874
o 421 2876
o 422 2877
o 423 2880
o 424 2882
